6,3	0,0	10,2	18,5	0,0	0,0	0,0	0,0	0,0	9,5
7,8	7,0	0,0	8,9	10,1	0,0	0,0	14,6	0,0	0,0
0,0	0,0	5,5	0,0	12,7	15,4	0,0	0,0	11,2	0,0
11,3	0,0	18,2	0,0	0,0	0,0	19,7	0,0	0,0	0,0
0,0	15,9	0,0	8,6	18,3	0,0	0,0	8,9	0,0	0,0
0,0	17,8	15,2	0,0	8,5	13,3	0,0	0,0	17,6	0,0
0,0	17,6	0,0	14,8	0,0	0,0	10,8	0,0	0,0	5,1
10,3	0,0	6,7	0,0	0,0	0,0	0,0	0,0	0,0	19,3
0,0	11,5	0,0	7,9	19,4	0,0	0,0	13,6	0,0	0,0
0,0	0,0	5,9	0,0	0,0	12,3	19,4	0,0	0,0	17,8
									
4,7	3,0	4,4	3,0	3,7	3,6	2,8	4,9	4,5	3,7
